50
6634

218 919
855 882
38 569
543 633
580 980
165 505
291 477
708 83
429 666
266 252
175 314
304 321
698 90
678 752
77 940
192 279
625 661
137 9
310 706
185 344
969 312
961 331
450 781
96 492
813 563
274 364
549 303
522 204
314 719
841 266
726 620
669 577
912 738
961 279
110 276
551 719
932 575
9 691
773 471
443 984
63 271
842 93
585 214
103 264
990 568
101 900
341 311
729 535
560 308
662 984
